12
48
1100
1138
1135
1003
954
1127
1076
1122
917
986
924
860
84	84
901	901
335	335
44	44
237	237
431	431
925	925
95	95
500	500
781	781
272	272
847	847
439	439
622	622
535	535
132	132
122	122
652	652
351	351
416	416
619	619
628	628
195	195
809	809
395	395
891	891
150	150
814	814
543	543
391	391
716	716
755	755
227	227
649	649
475	475
732	732
584	584
337	337
337	337
880	880
600	600
569	569
824	824
947	947
600	600
394	394
778	778
124	124
